40	100	100	100
20	22	4
20	32	10
34	9	26
22	31	4
15	28	5
23	33	13
7	11	23
29	16	33
16	14	34
8	26	22
4	7	32
7	10	4
23	12	6
30	16	33
21	13	20
17	4	13
24	22	1
14	17	15
9	25	28
29	13	5
9	13	18
7	6	8
18	11	23
9	5	21
22	27	20
16	26	7
5	31	27
20	31	28
14	20	16
31	15	28
30	16	34
27	34	31
8	18	8
16	3	18
23	9	32
28	6	18
7	5	27
6	17	7
16	32	18
34	8	15
